100
100 100
1 70 555
2 70 396
3 69 19
4 69 207
5 69 403
6 69 570
7 68 930
8 68 163
9 68 657
10 67 84
11 67 595
12 67 540
13 66 62
14 66 922
15 65 86
16 65 966
17 64 561
18 63 906
19 62 386
20 62 411
21 60 818
22 60 39
23 59 113
24 59 300
25 59 493
26 58 720
27 57 357
28 56 268
29 56 498
30 55 841
31 54 366
32 54 152
33 53 729
34 52 650
35 50 270
36 49 592
37 49 247
38 46 556
39 46 240
40 46 632
41 46 830
42 46 987
43 45 401
44 44 268
45 44 949
46 44 243
47 44 493
48 41 453
49 41 42
50 41 815
51 40 695
52 39 683
53 37 695
54 37 977
55 36 256
56 34 842
57 34 393
58 33 531
59 32 287
60 31 585
61 29 819
62 29 217
63 28 481
64 27 860
65 27 105
66 27 624
67 27 562
68 26 744
69 24 634
70 24 212
71 23 340
72 23 699
73 22 402
74 22 910
75 22 50
76 22 785
77 20 773
78 20 179
79 19 270
80 19 327
81 18 882
82 17 137
83 17 265
84 17 705
85 16 901
86 16 45
87 15 224
88 15 357
89 15 90
90 14 308
91 14 290
92 13 916
93 13 167
94 13 890
95 12 387
96 10 722
97 10 355
98 10 784
99 10 399
100 10 702
